(set-info :status unknown)
(declare-fun C2 () (_ BitVec 60))
(declare-fun %X () (_ BitVec 60))
(declare-fun C1 () (_ BitVec 60))
(assert
 (let ((?x9309 (ite (bvslt %X C2) (_ bv1 1) (_ bv0 1))))
 (and (bvslt C1 C2) (and (distinct (bvor (ite (= %X C1) (_ bv1 1) (_ bv0 1)) ?x9309) ?x9309) true))))
(check-sat)
